bulk@mp-134                             
   1.0000000000000000     
     2.4907699999999999   -0.0000000000000000    1.4380470000000001
     0.8302570000000000    2.3483209999999999    1.4380470000000001
    -0.0000000000000000   -0.0000000000000000    2.8760940000000002
   Al
     1
Direct
  0.0000000000000000  0.0000000000000000  0.0000000000000000

  0.00000000E+00  0.00000000E+00  0.00000000E+00
