AGGAC = 0.0
EDIFF = 1e-07
ENCUT = 500
GGA = Bo
IBRION = 1
ISIF = 2
ISMEAR = 0
ISPIN = 2
LCHARG = False
LORBIT = 11
LUSE_VDW = True
LWAVE = False
NBANDS = 18
NEDOS = 5000
NELM = 400
NPAR = 4
PARAM1 = 0.1833333333
PARAM2 = 0.22
PREC = Accurate
