Non SCF run along symmetry lines
210
Reciprocal
0.0 0.0 0.0 1 \Gamma
0.0161290322581 1.15919558896e-18 0.0161290322581 1 
0.0322580645161 2.31839117793e-18 0.0322580645161 1 
0.0483870967742 3.47758676689e-18 0.0483870967742 1 
0.0645161290323 4.63678235585e-18 0.0645161290323 1 
0.0806451612903 5.79597794481e-18 0.0806451612903 1 
0.0967741935484 6.95517353378e-18 0.0967741935484 1 
0.112903225806 8.11436912274e-18 0.112903225806 1 
0.129032258065 9.2735647117e-18 0.129032258065 1 
0.145161290323 1.04327603007e-17 0.145161290323 1 
0.161290322581 1.15919558896e-17 0.161290322581 1 
0.177419354839 1.27511514786e-17 0.177419354839 1 
0.193548387097 1.39103470676e-17 0.193548387097 1 
0.209677419355 1.50695426565e-17 0.209677419355 1 
0.225806451613 1.62287382455e-17 0.225806451613 1 
0.241935483871 1.73879338344e-17 0.241935483871 1 
0.258064516129 1.85471294234e-17 0.258064516129 1 
0.274193548387 1.97063250124e-17 0.274193548387 1 
0.290322580645 2.08655206013e-17 0.290322580645 1 
0.306451612903 2.20247161903e-17 0.306451612903 1 
0.322580645161 2.31839117793e-17 0.322580645161 1 
0.338709677419 2.43431073682e-17 0.338709677419 1 
0.354838709677 2.55023029572e-17 0.354838709677 1 
0.370967741935 2.66614985461e-17 0.370967741935 1 
0.387096774194 2.78206941351e-17 0.387096774194 1 
0.403225806452 2.89798897241e-17 0.403225806452 1 
0.41935483871 3.0139085313e-17 0.41935483871 1 
0.435483870968 3.1298280902e-17 0.435483870968 1 
0.451612903226 3.2457476491e-17 0.451612903226 1 
0.467741935484 3.36166720799e-17 0.467741935484 1 
0.483870967742 3.47758676689e-17 0.483870967742 1 
0.5 3.59350632579e-17 0.5 1 X
0.5 3.59350632579e-17 0.5 1 X
0.5 0.015625 0.515625 1 
0.5 0.03125 0.53125 1 
0.5 0.046875 0.546875 1 
0.5 0.0625 0.5625 1 
0.5 0.078125 0.578125 1 
0.5 0.09375 0.59375 1 
0.5 0.109375 0.609375 1 
0.5 0.125 0.625 1 
0.5 0.140625 0.640625 1 
0.5 0.15625 0.65625 1 
0.5 0.171875 0.671875 1 
0.5 0.1875 0.6875 1 
0.5 0.203125 0.703125 1 
0.5 0.21875 0.71875 1 
0.5 0.234375 0.734375 1 
0.5 0.25 0.75 1 W
0.5 0.25 0.75 1 W
0.488636363636 0.261363636364 0.75 1 
0.477272727273 0.272727272727 0.75 1 
0.465909090909 0.284090909091 0.75 1 
0.454545454545 0.295454545455 0.75 1 
0.443181818182 0.306818181818 0.75 1 
0.431818181818 0.318181818182 0.75 1 
0.420454545455 0.329545454545 0.75 1 
0.409090909091 0.340909090909 0.75 1 
0.397727272727 0.352272727273 0.75 1 
0.386363636364 0.363636363636 0.75 1 
0.375 0.375 0.75 1 K
0.375 0.375 0.75 1 K
0.363636363636 0.363636363636 0.727272727273 1 
0.352272727273 0.352272727273 0.704545454545 1 
0.340909090909 0.340909090909 0.681818181818 1 
0.329545454545 0.329545454545 0.659090909091 1 
0.318181818182 0.318181818182 0.636363636364 1 
0.306818181818 0.306818181818 0.613636363636 1 
0.295454545455 0.295454545455 0.590909090909 1 
0.284090909091 0.284090909091 0.568181818182 1 
0.272727272727 0.272727272727 0.545454545455 1 
0.261363636364 0.261363636364 0.522727272727 1 
0.25 0.25 0.5 1 
0.238636363636 0.238636363636 0.477272727273 1 
0.227272727273 0.227272727273 0.454545454545 1 
0.215909090909 0.215909090909 0.431818181818 1 
0.204545454545 0.204545454545 0.409090909091 1 
0.193181818182 0.193181818182 0.386363636364 1 
0.181818181818 0.181818181818 0.363636363636 1 
0.170454545455 0.170454545455 0.340909090909 1 
0.159090909091 0.159090909091 0.318181818182 1 
0.147727272727 0.147727272727 0.295454545455 1 
0.136363636364 0.136363636364 0.272727272727 1 
0.125 0.125 0.25 1 
0.113636363636 0.113636363636 0.227272727273 1 
0.102272727273 0.102272727273 0.204545454545 1 
0.0909090909091 0.0909090909091 0.181818181818 1 
0.0795454545455 0.0795454545455 0.159090909091 1 
0.0681818181818 0.0681818181818 0.136363636364 1 
0.0568181818182 0.0568181818182 0.113636363636 1 
0.0454545454545 0.0454545454545 0.0909090909091 1 
0.0340909090909 0.0340909090909 0.0681818181818 1 
0.0227272727273 0.0227272727273 0.0454545454545 1 
0.0113636363636 0.0113636363636 0.0227272727273 1 
0.0 0.0 0.0 1 \Gamma
0.0 0.0 0.0 1 \Gamma
0.0185185185185 0.0185185185185 0.0185185185185 1 
0.037037037037 0.037037037037 0.037037037037 1 
0.0555555555556 0.0555555555556 0.0555555555556 1 
0.0740740740741 0.0740740740741 0.0740740740741 1 
0.0925925925926 0.0925925925926 0.0925925925926 1 
0.111111111111 0.111111111111 0.111111111111 1 
0.12962962963 0.12962962963 0.12962962963 1 
0.148148148148 0.148148148148 0.148148148148 1 
0.166666666667 0.166666666667 0.166666666667 1 
0.185185185185 0.185185185185 0.185185185185 1 
0.203703703704 0.203703703704 0.203703703704 1 
0.222222222222 0.222222222222 0.222222222222 1 
0.240740740741 0.240740740741 0.240740740741 1 
0.259259259259 0.259259259259 0.259259259259 1 
0.277777777778 0.277777777778 0.277777777778 1 
0.296296296296 0.296296296296 0.296296296296 1 
0.314814814815 0.314814814815 0.314814814815 1 
0.333333333333 0.333333333333 0.333333333333 1 
0.351851851852 0.351851851852 0.351851851852 1 
0.37037037037 0.37037037037 0.37037037037 1 
0.388888888889 0.388888888889 0.388888888889 1 
0.407407407407 0.407407407407 0.407407407407 1 
0.425925925926 0.425925925926 0.425925925926 1 
0.444444444444 0.444444444444 0.444444444444 1 
0.462962962963 0.462962962963 0.462962962963 1 
0.481481481481 0.481481481481 0.481481481481 1 
0.5 0.5 0.5 1 L
0.5 0.5 0.5 1 L
0.506578947368 0.486842105263 0.506578947368 1 
0.513157894737 0.473684210526 0.513157894737 1 
0.519736842105 0.460526315789 0.519736842105 1 
0.526315789474 0.447368421053 0.526315789474 1 
0.532894736842 0.434210526316 0.532894736842 1 
0.539473684211 0.421052631579 0.539473684211 1 
0.546052631579 0.407894736842 0.546052631579 1 
0.552631578947 0.394736842105 0.552631578947 1 
0.559210526316 0.381578947368 0.559210526316 1 
0.565789473684 0.368421052632 0.565789473684 1 
0.572368421053 0.355263157895 0.572368421053 1 
0.578947368421 0.342105263158 0.578947368421 1 
0.585526315789 0.328947368421 0.585526315789 1 
0.592105263158 0.315789473684 0.592105263158 1 
0.598684210526 0.302631578947 0.598684210526 1 
0.605263157895 0.289473684211 0.605263157895 1 
0.611842105263 0.276315789474 0.611842105263 1 
0.618421052632 0.263157894737 0.618421052632 1 
0.625 0.25 0.625 1 U
0.625 0.25 0.625 1 U
0.613636363636 0.25 0.636363636364 1 
0.602272727273 0.25 0.647727272727 1 
0.590909090909 0.25 0.659090909091 1 
0.579545454545 0.25 0.670454545455 1 
0.568181818182 0.25 0.681818181818 1 
0.556818181818 0.25 0.693181818182 1 
0.545454545455 0.25 0.704545454545 1 
0.534090909091 0.25 0.715909090909 1 
0.522727272727 0.25 0.727272727273 1 
0.511363636364 0.25 0.738636363636 1 
0.5 0.25 0.75 1 W
0.5 0.25 0.75 1 W
0.5 0.261363636364 0.738636363636 1 
0.5 0.272727272727 0.727272727273 1 
0.5 0.284090909091 0.715909090909 1 
0.5 0.295454545455 0.704545454545 1 
0.5 0.306818181818 0.693181818182 1 
0.5 0.318181818182 0.681818181818 1 
0.5 0.329545454545 0.670454545455 1 
0.5 0.340909090909 0.659090909091 1 
0.5 0.352272727273 0.647727272727 1 
0.5 0.363636363636 0.636363636364 1 
0.5 0.375 0.625 1 
0.5 0.386363636364 0.613636363636 1 
0.5 0.397727272727 0.602272727273 1 
0.5 0.409090909091 0.590909090909 1 
0.5 0.420454545455 0.579545454545 1 
0.5 0.431818181818 0.568181818182 1 
0.5 0.443181818182 0.556818181818 1 
0.5 0.454545454545 0.545454545455 1 
0.5 0.465909090909 0.534090909091 1 
0.5 0.477272727273 0.522727272727 1 
0.5 0.488636363636 0.511363636364 1 
0.5 0.5 0.5 1 L
0.5 0.5 0.5 1 L
0.493421052632 0.493421052632 0.513157894737 1 
0.486842105263 0.486842105263 0.526315789474 1 
0.480263157895 0.480263157895 0.539473684211 1 
0.473684210526 0.473684210526 0.552631578947 1 
0.467105263158 0.467105263158 0.565789473684 1 
0.460526315789 0.460526315789 0.578947368421 1 
0.453947368421 0.453947368421 0.592105263158 1 
0.447368421053 0.447368421053 0.605263157895 1 
0.440789473684 0.440789473684 0.618421052632 1 
0.434210526316 0.434210526316 0.631578947368 1 
0.427631578947 0.427631578947 0.644736842105 1 
0.421052631579 0.421052631579 0.657894736842 1 
0.414473684211 0.414473684211 0.671052631579 1 
0.407894736842 0.407894736842 0.684210526316 1 
0.401315789474 0.401315789474 0.697368421053 1 
0.394736842105 0.394736842105 0.710526315789 1 
0.388157894737 0.388157894737 0.723684210526 1 
0.381578947368 0.381578947368 0.736842105263 1 
0.375 0.375 0.75 1 K
0.625 0.25 0.625 1 U
0.613636363636 0.227272727273 0.613636363636 1 
0.602272727273 0.204545454545 0.602272727273 1 
0.590909090909 0.181818181818 0.590909090909 1 
0.579545454545 0.159090909091 0.579545454545 1 
0.568181818182 0.136363636364 0.568181818182 1 
0.556818181818 0.113636363636 0.556818181818 1 
0.545454545455 0.0909090909091 0.545454545455 1 
0.534090909091 0.0681818181818 0.534090909091 1 
0.522727272727 0.0454545454545 0.522727272727 1 
0.511363636364 0.0227272727273 0.511363636364 1 
0.5 3.59350632579e-17 0.5 1 X
