bulk@mp-134
1.0
2.490770 -0.000000 1.438047
0.830257 2.348321 1.438047
-0.000000 -0.000000 2.876094
Al
1
direct
0.000000 0.000000 -0.000000 Al

0.000000 0.000000 0.000000
